Route #1: 1 35 45 41 38 28 21 34 10 37 1
Route #2: 1 8 26 50 44 12 17 13 1
Route #3: 1 3 49 4 14 39 23 11 36 24 1
Route #4: 1 19 48 27 5 25 31 15 32 1
Route #5: 1 2 22 18 43 9 7 1
Route #6: 1 16 42 46 40 47 1
Route #7: 1 33 30 20 29 1
Route #8: 1 6 1
cost 1409.6985219628796